%mem=1GB
%NProcShared=10
#P uhf mp2/cc-pvdz
# SCF=(xqc)
# Force=()
# int=ultrafine
# fchk NoSym guess=mix

comment: 

0 3
GEOMETRY
  Variables:

