%mem=1GB
%NProcShared=10
#P rhf mp2/cc-pvdz
# SCF=(xqc)
# Force=()
# int=ultrafine
# fchk NoSym guess=mix

comment: 

0 1
GEOMETRY
  Variables:

