%mem=1GB                                                                        
%NProcShared=10                                                                 
#P uhf mp2/cc-pvdz                                                              
# SCF=(xqc)                                                                     
# Force=()                                                                      
# int=ultrafine                                                                 
# fchk NoSym guess=mix                                                          
                                                                                
comment:                                                                        
                                                                                
0 3                                                                             
N          -0.1163630000       -0.1163630000        1.0549770000
C           0.3327260000        0.3327260000        0.0000000000
N          -0.1163630000       -0.1163630000       -1.0549770000
  Variables:                                                                    
                                                                                
